(set-option :produce-models true)
(set-logic QF_LRA)
(set-info :notes | Strip-packing problem.|)
(declare-fun x0 () Real)
(declare-fun y0 () Real)
(declare-fun x1 () Real)
(declare-fun y1 () Real)
(declare-fun x2 () Real)
(declare-fun y2 () Real)
(declare-fun x3 () Real)
(declare-fun y3 () Real)
(declare-fun x4 () Real)
(declare-fun y4 () Real)
(declare-fun x5 () Real)
(declare-fun y5 () Real)
(declare-fun x6 () Real)
(declare-fun y6 () Real)
(declare-fun x7 () Real)
(declare-fun y7 () Real)
(declare-fun x8 () Real)
(declare-fun y8 () Real)
(declare-fun x9 () Real)
(declare-fun y9 () Real)
(declare-fun x10 () Real)
(declare-fun y10 () Real)
(declare-fun x11 () Real)
(declare-fun y11 () Real)
(declare-fun z () Real)
(declare-fun c () Real)
(assert (and (= c z) (and (>= x0 0) 
(and (>= y0 0) 
(and (>= x1 0) 
(and (>= y1 0) 
(and (>= x2 0) 
(and (>= y2 0) 
(and (>= x3 0) 
(and (>= y3 0) 
(and (>= x4 0) 
(and (>= y4 0) 
(and (>= x5 0) 
(and (>= y5 0) 
(and (>= x6 0) 
(and (>= y6 0) 
(and (>= x7 0) 
(and (>= y7 0) 
(and (>= x8 0) 
(and (>= y8 0) 
(and (>= x9 0) 
(and (>= y9 0) 
(and (>= x10 0) 
(and (>= y10 0) 
(and (>= x11 0) 
(and (>= y11 0) 
(and (>= z 0) 
(and (>= c 0) 
(and (<= (+ x0 0.3285885246) z) 
(and (<= 0.9359685618 y0) 
(and (<= y0 1.0) 
(and (<= x0 (- 4.3512519937 0.3285885246)) 
(and (>= x0 0) 
(and (<= (+ x1 0.3742796959) z) 
(and (<= 0.9344711408 y1) 
(and (<= y1 1.0) 
(and (<= x1 (- 4.3512519937 0.3742796959)) 
(and (>= x1 0) 
(and (<= (+ x2 0.3609318595) z) 
(and (<= 0.849383576 y2) 
(and (<= y2 1.0) 
(and (<= x2 (- 4.3512519937 0.3609318595)) 
(and (>= x2 0) 
(and (<= (+ x3 0.7406459857) z) 
(and (<= 0.765669039 y3) 
(and (<= y3 1.0) 
(and (<= x3 (- 4.3512519937 0.7406459857)) 
(and (>= x3 0) 
(and (<= (+ x4 0.0043551645) z) 
(and (<= 0.5297364925 y4) 
(and (<= y4 1.0) 
(and (<= x4 (- 4.3512519937 0.0043551645)) 
(and (>= x4 0) 
(and (<= (+ x5 0.1635385487) z) 
(and (<= 0.5236467913 y5) 
(and (<= y5 1.0) 
(and (<= x5 (- 4.3512519937 0.1635385487)) 
(and (>= x5 0) 
(and (<= (+ x6 0.7620353729) z) 
(and (<= 0.4557707747 y6) 
(and (<= y6 1.0) 
(and (<= x6 (- 4.3512519937 0.7620353729)) 
(and (>= x6 0) 
(and (<= (+ x7 0.2417697537) z) 
(and (<= 0.4089004171 y7) 
(and (<= y7 1.0) 
(and (<= x7 (- 4.3512519937 0.2417697537)) 
(and (>= x7 0) 
(and (<= (+ x8 0.6300448335) z) 
(and (<= 0.3960799614 y8) 
(and (<= y8 1.0) 
(and (<= x8 (- 4.3512519937 0.6300448335)) 
(and (>= x8 0) 
(and (<= (+ x9 0.4768187896) z) 
(and (<= 0.2587481438 y9) 
(and (<= y9 1.0) 
(and (<= x9 (- 4.3512519937 0.4768187896)) 
(and (>= x9 0) 
(and (<= (+ x10 0.9868320084) z) 
(and (<= 0.1625309179 y10) 
(and (<= y10 1.0) 
(and (<= x10 (- 4.3512519937 0.9868320084)) 
(and (>= x10 0) 
(and (<= (+ x11 0.3651393417) z) 
(and (<= 0.1319546929 y11) 
(and (<= y11 1.0) 
(and (<= x11 (- 4.3512519937 0.3651393417)) 
(and (>= x11 0) 
(and (<= c 4.3512519937) 
(and (or (<= (+ x0 0.3285885246) x1) (or (<= (+ x1 0.3742796959) x0) (or (>= (- y0 0.9359685618) y1) (or (>= (- y1 0.9344711408) y0))))) 
(and (or (<= (+ x0 0.3285885246) x2) (or (<= (+ x2 0.3609318595) x0) (or (>= (- y0 0.9359685618) y2) (or (>= (- y2 0.849383576) y0))))) 
(and (or (<= (+ x0 0.3285885246) x3) (or (<= (+ x3 0.7406459857) x0) (or (>= (- y0 0.9359685618) y3) (or (>= (- y3 0.765669039) y0))))) 
(and (or (<= (+ x0 0.3285885246) x4) (or (<= (+ x4 0.0043551645) x0) (or (>= (- y0 0.9359685618) y4) (or (>= (- y4 0.5297364925) y0))))) 
(and (or (<= (+ x0 0.3285885246) x5) (or (<= (+ x5 0.1635385487) x0) (or (>= (- y0 0.9359685618) y5) (or (>= (- y5 0.5236467913) y0))))) 
(and (or (<= (+ x0 0.3285885246) x6) (or (<= (+ x6 0.7620353729) x0) (or (>= (- y0 0.9359685618) y6) (or (>= (- y6 0.4557707747) y0))))) 
(and (or (<= (+ x0 0.3285885246) x7) (or (<= (+ x7 0.2417697537) x0) (or (>= (- y0 0.9359685618) y7) (or (>= (- y7 0.4089004171) y0))))) 
(and (or (<= (+ x0 0.3285885246) x8) (or (<= (+ x8 0.6300448335) x0) (or (>= (- y0 0.9359685618) y8) (or (>= (- y8 0.3960799614) y0))))) 
(and (or (<= (+ x0 0.3285885246) x9) (or (<= (+ x9 0.4768187896) x0) (or (>= (- y0 0.9359685618) y9) (or (>= (- y9 0.2587481438) y0))))) 
(and (or (<= (+ x0 0.3285885246) x10) (or (<= (+ x10 0.9868320084) x0) (or (>= (- y0 0.9359685618) y10) (or (>= (- y10 0.1625309179) y0))))) 
(and (or (<= (+ x0 0.3285885246) x11) (or (<= (+ x11 0.3651393417) x0) (or (>= (- y0 0.9359685618) y11) (or (>= (- y11 0.1319546929) y0))))) 
(and (or (<= (+ x1 0.3742796959) x2) (or (<= (+ x2 0.3609318595) x1) (or (>= (- y1 0.9344711408) y2) (or (>= (- y2 0.849383576) y1))))) 
(and (or (<= (+ x1 0.3742796959) x3) (or (<= (+ x3 0.7406459857) x1) (or (>= (- y1 0.9344711408) y3) (or (>= (- y3 0.765669039) y1))))) 
(and (or (<= (+ x1 0.3742796959) x4) (or (<= (+ x4 0.0043551645) x1) (or (>= (- y1 0.9344711408) y4) (or (>= (- y4 0.5297364925) y1))))) 
(and (or (<= (+ x1 0.3742796959) x5) (or (<= (+ x5 0.1635385487) x1) (or (>= (- y1 0.9344711408) y5) (or (>= (- y5 0.5236467913) y1))))) 
(and (or (<= (+ x1 0.3742796959) x6) (or (<= (+ x6 0.7620353729) x1) (or (>= (- y1 0.9344711408) y6) (or (>= (- y6 0.4557707747) y1))))) 
(and (or (<= (+ x1 0.3742796959) x7) (or (<= (+ x7 0.2417697537) x1) (or (>= (- y1 0.9344711408) y7) (or (>= (- y7 0.4089004171) y1))))) 
(and (or (<= (+ x1 0.3742796959) x8) (or (<= (+ x8 0.6300448335) x1) (or (>= (- y1 0.9344711408) y8) (or (>= (- y8 0.3960799614) y1))))) 
(and (or (<= (+ x1 0.3742796959) x9) (or (<= (+ x9 0.4768187896) x1) (or (>= (- y1 0.9344711408) y9) (or (>= (- y9 0.2587481438) y1))))) 
(and (or (<= (+ x1 0.3742796959) x10) (or (<= (+ x10 0.9868320084) x1) (or (>= (- y1 0.9344711408) y10) (or (>= (- y10 0.1625309179) y1))))) 
(and (or (<= (+ x1 0.3742796959) x11) (or (<= (+ x11 0.3651393417) x1) (or (>= (- y1 0.9344711408) y11) (or (>= (- y11 0.1319546929) y1))))) 
(and (or (<= (+ x2 0.3609318595) x3) (or (<= (+ x3 0.7406459857) x2) (or (>= (- y2 0.849383576) y3) (or (>= (- y3 0.765669039) y2))))) 
(and (or (<= (+ x2 0.3609318595) x4) (or (<= (+ x4 0.0043551645) x2) (or (>= (- y2 0.849383576) y4) (or (>= (- y4 0.5297364925) y2))))) 
(and (or (<= (+ x2 0.3609318595) x5) (or (<= (+ x5 0.1635385487) x2) (or (>= (- y2 0.849383576) y5) (or (>= (- y5 0.5236467913) y2))))) 
(and (or (<= (+ x2 0.3609318595) x6) (or (<= (+ x6 0.7620353729) x2) (or (>= (- y2 0.849383576) y6) (or (>= (- y6 0.4557707747) y2))))) 
(and (or (<= (+ x2 0.3609318595) x7) (or (<= (+ x7 0.2417697537) x2) (or (>= (- y2 0.849383576) y7) (or (>= (- y7 0.4089004171) y2))))) 
(and (or (<= (+ x2 0.3609318595) x8) (or (<= (+ x8 0.6300448335) x2) (or (>= (- y2 0.849383576) y8) (or (>= (- y8 0.3960799614) y2))))) 
(and (or (<= (+ x2 0.3609318595) x9) (or (<= (+ x9 0.4768187896) x2) (or (>= (- y2 0.849383576) y9) (or (>= (- y9 0.2587481438) y2))))) 
(and (or (<= (+ x2 0.3609318595) x10) (or (<= (+ x10 0.9868320084) x2) (or (>= (- y2 0.849383576) y10) (or (>= (- y10 0.1625309179) y2))))) 
(and (or (<= (+ x2 0.3609318595) x11) (or (<= (+ x11 0.3651393417) x2) (or (>= (- y2 0.849383576) y11) (or (>= (- y11 0.1319546929) y2))))) 
(and (or (<= (+ x3 0.7406459857) x4) (or (<= (+ x4 0.0043551645) x3) (or (>= (- y3 0.765669039) y4) (or (>= (- y4 0.5297364925) y3))))) 
(and (or (<= (+ x3 0.7406459857) x5) (or (<= (+ x5 0.1635385487) x3) (or (>= (- y3 0.765669039) y5) (or (>= (- y5 0.5236467913) y3))))) 
(and (or (<= (+ x3 0.7406459857) x6) (or (<= (+ x6 0.7620353729) x3) (or (>= (- y3 0.765669039) y6) (or (>= (- y6 0.4557707747) y3))))) 
(and (or (<= (+ x3 0.7406459857) x7) (or (<= (+ x7 0.2417697537) x3) (or (>= (- y3 0.765669039) y7) (or (>= (- y7 0.4089004171) y3))))) 
(and (or (<= (+ x3 0.7406459857) x8) (or (<= (+ x8 0.6300448335) x3) (or (>= (- y3 0.765669039) y8) (or (>= (- y8 0.3960799614) y3))))) 
(and (or (<= (+ x3 0.7406459857) x9) (or (<= (+ x9 0.4768187896) x3) (or (>= (- y3 0.765669039) y9) (or (>= (- y9 0.2587481438) y3))))) 
(and (or (<= (+ x3 0.7406459857) x10) (or (<= (+ x10 0.9868320084) x3) (or (>= (- y3 0.765669039) y10) (or (>= (- y10 0.1625309179) y3))))) 
(and (or (<= (+ x3 0.7406459857) x11) (or (<= (+ x11 0.3651393417) x3) (or (>= (- y3 0.765669039) y11) (or (>= (- y11 0.1319546929) y3))))) 
(and (or (<= (+ x4 0.0043551645) x5) (or (<= (+ x5 0.1635385487) x4) (or (>= (- y4 0.5297364925) y5) (or (>= (- y5 0.5236467913) y4))))) 
(and (or (<= (+ x4 0.0043551645) x6) (or (<= (+ x6 0.7620353729) x4) (or (>= (- y4 0.5297364925) y6) (or (>= (- y6 0.4557707747) y4))))) 
(and (or (<= (+ x4 0.0043551645) x7) (or (<= (+ x7 0.2417697537) x4) (or (>= (- y4 0.5297364925) y7) (or (>= (- y7 0.4089004171) y4))))) 
(and (or (<= (+ x4 0.0043551645) x8) (or (<= (+ x8 0.6300448335) x4) (or (>= (- y4 0.5297364925) y8) (or (>= (- y8 0.3960799614) y4))))) 
(and (or (<= (+ x4 0.0043551645) x9) (or (<= (+ x9 0.4768187896) x4) (or (>= (- y4 0.5297364925) y9) (or (>= (- y9 0.2587481438) y4))))) 
(and (or (<= (+ x4 0.0043551645) x10) (or (<= (+ x10 0.9868320084) x4) (or (>= (- y4 0.5297364925) y10) (or (>= (- y10 0.1625309179) y4))))) 
(and (or (<= (+ x4 0.0043551645) x11) (or (<= (+ x11 0.3651393417) x4) (or (>= (- y4 0.5297364925) y11) (or (>= (- y11 0.1319546929) y4))))) 
(and (or (<= (+ x5 0.1635385487) x6) (or (<= (+ x6 0.7620353729) x5) (or (>= (- y5 0.5236467913) y6) (or (>= (- y6 0.4557707747) y5))))) 
(and (or (<= (+ x5 0.1635385487) x7) (or (<= (+ x7 0.2417697537) x5) (or (>= (- y5 0.5236467913) y7) (or (>= (- y7 0.4089004171) y5))))) 
(and (or (<= (+ x5 0.1635385487) x8) (or (<= (+ x8 0.6300448335) x5) (or (>= (- y5 0.5236467913) y8) (or (>= (- y8 0.3960799614) y5))))) 
(and (or (<= (+ x5 0.1635385487) x9) (or (<= (+ x9 0.4768187896) x5) (or (>= (- y5 0.5236467913) y9) (or (>= (- y9 0.2587481438) y5))))) 
(and (or (<= (+ x5 0.1635385487) x10) (or (<= (+ x10 0.9868320084) x5) (or (>= (- y5 0.5236467913) y10) (or (>= (- y10 0.1625309179) y5))))) 
(and (or (<= (+ x5 0.1635385487) x11) (or (<= (+ x11 0.3651393417) x5) (or (>= (- y5 0.5236467913) y11) (or (>= (- y11 0.1319546929) y5))))) 
(and (or (<= (+ x6 0.7620353729) x7) (or (<= (+ x7 0.2417697537) x6) (or (>= (- y6 0.4557707747) y7) (or (>= (- y7 0.4089004171) y6))))) 
(and (or (<= (+ x6 0.7620353729) x8) (or (<= (+ x8 0.6300448335) x6) (or (>= (- y6 0.4557707747) y8) (or (>= (- y8 0.3960799614) y6))))) 
(and (or (<= (+ x6 0.7620353729) x9) (or (<= (+ x9 0.4768187896) x6) (or (>= (- y6 0.4557707747) y9) (or (>= (- y9 0.2587481438) y6))))) 
(and (or (<= (+ x6 0.7620353729) x10) (or (<= (+ x10 0.9868320084) x6) (or (>= (- y6 0.4557707747) y10) (or (>= (- y10 0.1625309179) y6))))) 
(and (or (<= (+ x6 0.7620353729) x11) (or (<= (+ x11 0.3651393417) x6) (or (>= (- y6 0.4557707747) y11) (or (>= (- y11 0.1319546929) y6))))) 
(and (or (<= (+ x7 0.2417697537) x8) (or (<= (+ x8 0.6300448335) x7) (or (>= (- y7 0.4089004171) y8) (or (>= (- y8 0.3960799614) y7))))) 
(and (or (<= (+ x7 0.2417697537) x9) (or (<= (+ x9 0.4768187896) x7) (or (>= (- y7 0.4089004171) y9) (or (>= (- y9 0.2587481438) y7))))) 
(and (or (<= (+ x7 0.2417697537) x10) (or (<= (+ x10 0.9868320084) x7) (or (>= (- y7 0.4089004171) y10) (or (>= (- y10 0.1625309179) y7))))) 
(and (or (<= (+ x7 0.2417697537) x11) (or (<= (+ x11 0.3651393417) x7) (or (>= (- y7 0.4089004171) y11) (or (>= (- y11 0.1319546929) y7))))) 
(and (or (<= (+ x8 0.6300448335) x9) (or (<= (+ x9 0.4768187896) x8) (or (>= (- y8 0.3960799614) y9) (or (>= (- y9 0.2587481438) y8))))) 
(and (or (<= (+ x8 0.6300448335) x10) (or (<= (+ x10 0.9868320084) x8) (or (>= (- y8 0.3960799614) y10) (or (>= (- y10 0.1625309179) y8))))) 
(and (or (<= (+ x8 0.6300448335) x11) (or (<= (+ x11 0.3651393417) x8) (or (>= (- y8 0.3960799614) y11) (or (>= (- y11 0.1319546929) y8))))) 
(and (or (<= (+ x9 0.4768187896) x10) (or (<= (+ x10 0.9868320084) x9) (or (>= (- y9 0.2587481438) y10) (or (>= (- y10 0.1625309179) y9))))) 
(and (or (<= (+ x9 0.4768187896) x11) (or (<= (+ x11 0.3651393417) x9) (or (>= (- y9 0.2587481438) y11) (or (>= (- y11 0.1319546929) y9))))) 
(and (or (<= (+ x10 0.9868320084) x11) (or (<= (+ x11 0.3651393417) x10) (or (>= (- y10 0.1625309179) y11) (or (>= (- y11 0.1319546929) y10))))) )))))))))))))))))))))))))))))))))))))))))))))))))))))))))))))))))))))))))))))))))))))))))))))))))))))))))))))))))))))))))))))))))))))))))))))))))))))))))))
(minimize c)
(check-sat)
(get-objectives)
(exit)
